c DIMACS CNF format
c Unsatisfiable benchmark problem
c Generated for SAT solver verification testing
c This problem contains contradictory constraints
c
p cnf 10 18
1 2 3 0
-1 -2 0
-1 -3 0
-2 -3 0
4 5 6 0
-4 -5 0
-4 -6 0
-5 -6 0
1 4 7 0
-7 8 0
-8 9 0
-9 10 0
-10 7 0
2 5 -7 0
3 6 -8 0
-1 -4 9 0
-2 -5 10 0
-3 -6 -9 0